certificates/rado_a7_c10_N25.cnf
c Rad2 upper bound instance: x1 + 7*x2 - x3 = 10, interval [1,25]
p cnf 25 126
1 2 5 0
-1 -2 -5 0
1 3 12 0
-1 -3 -12 0
1 4 19 0
-1 -4 -19 0
2 6 0
-2 -6 0
2 3 13 0
-2 -3 -13 0
2 4 20 0
-2 -4 -20 0
2 3 7 0
-2 -3 -7 0
3 14 0
-3 -14 0
3 4 21 0
-3 -4 -21 0
1 4 0
-1 -4 0
2 4 8 0
-2 -4 -8 0
3 4 15 0
-3 -4 -15 0
4 22 0
-4 -22 0
2 5 9 0
-2 -5 -9 0
3 5 16 0
-3 -5 -16 0
4 5 23 0
-4 -5 -23 0
1 3 6 0
-1 -3 -6 0
2 6 10 0
-2 -6 -10 0
3 6 17 0
-3 -6 -17 0
4 6 24 0
-4 -6 -24 0
1 4 7 0
-1 -4 -7 0
2 7 11 0
-2 -7 -11 0
3 7 18 0
-3 -7 -18 0
4 7 25 0
-4 -7 -25 0
1 5 8 0
-1 -5 -8 0
2 8 12 0
-2 -8 -12 0
3 8 19 0
-3 -8 -19 0
1 6 9 0
-1 -6 -9 0
2 9 13 0
-2 -9 -13 0
3 9 20 0
-3 -9 -20 0
1 7 10 0
-1 -7 -10 0
2 10 14 0
-2 -10 -14 0
3 10 21 0
-3 -10 -21 0
1 8 11 0
-1 -8 -11 0
2 11 15 0
-2 -11 -15 0
3 11 22 0
-3 -11 -22 0
1 9 12 0
-1 -9 -12 0
2 12 16 0
-2 -12 -16 0
3 12 23 0
-3 -12 -23 0
1 10 13 0
-1 -10 -13 0
2 13 17 0
-2 -13 -17 0
3 13 24 0
-3 -13 -24 0
1 11 14 0
-1 -11 -14 0
2 14 18 0
-2 -14 -18 0
3 14 25 0
-3 -14 -25 0
1 12 15 0
-1 -12 -15 0
2 15 19 0
-2 -15 -19 0
1 13 16 0
-1 -13 -16 0
2 16 20 0
-2 -16 -20 0
1 14 17 0
-1 -14 -17 0
2 17 21 0
-2 -17 -21 0
1 15 18 0
-1 -15 -18 0
2 18 22 0
-2 -18 -22 0
1 16 19 0
-1 -16 -19 0
2 19 23 0
-2 -19 -23 0
1 17 20 0
-1 -17 -20 0
2 20 24 0
-2 -20 -24 0
1 18 21 0
-1 -18 -21 0
2 21 25 0
-2 -21 -25 0
1 19 22 0
-1 -19 -22 0
1 20 23 0
-1 -20 -23 0
1 21 24 0
-1 -21 -24 0
1 22 25 0
-1 -22 -25 0
