certificates/rado_a7_c10_N25.drat
-22 -25 0
6 22 0
-25 0
22 0
-4 0
1 0
7 0
-19 0
-10 0
2 0
-6 0
-18 0
-5 0
-3 0
-11 0
24 0
23 0
14 0
21 0
15 0
16 0
17 0
8 0
0
